108195
106441
106441
105931
105931
105514
105514
104167
99528.1
99206.9
98900.5
96590.8
96590.8
96590.8
96590.8
96590.8
94147.9
89197.5
89197.5
89197.5
89197.5
89197.5
89020.1
87920.9
87920.9
85359.1
85359.1
85314.2
85314.2
85314.2
84629.3
84373.7
84373.7
84373.7
81991.3
81991.3
81467.9
81342.9
81342.9
80635.8
80378.1
80378.1
80378.1
80378.1
80378.1
80334
79554.5
79391
79391
79335.4
79335.4
79335.4
79335.4
79335.4
78818.9
77976.6
77612.8
77612.8
77439.5
77439.5
77439.5
77299.9
77299.9
77299.9
77082.9
77082.9
77082.9
77082.9
77082.9
77082.9
76731.6
76731.6
76731.6
76731.6
76576.8
76239
75904.9
75904.9
75904.9
75904.9
75823.1
75519.7
75519.7
74791.3
74075
74075
73493.5
73493.5
72735.8
72735.8
72735.8
72735.8
72724
72724
72724
72724
72724
71831.7
71819.9
71819.9
